This is Ipopt version 3.10.0, running with linear solver ma27.

Number of nonzeros in equality constraint Jacobian...:        0
Number of nonzeros in inequality constraint Jacobian.:       48
Number of nonzeros in Lagrangian Hessian.............:        0

Total number of variables............................:        6
                     variables with only lower bounds:        0
                variables with lower and upper bounds:        6
                     variables with only upper bounds:        0
Total number of equality constraints.................:        0
Total number of inequality constraints...............:        8
        inequality constraints with only lower bounds:        0
   inequality constraints with lower and upper bounds:        0
        inequality constraints with only upper bounds:        8

iter    objective    inf_pr   inf_du lg(mu)  ||d||  lg(rg) alpha_du alpha_pr  ls
   0  7.6646608e+00 2.46e+00 1.15e+00   0.0 0.00e+00    -  0.00e+00 0.00e+00   0
   1  9.2535446e+00 1.60e+00 1.01e+01  -0.5 1.47e+00    -  5.21e-01 4.87e-01f  1
   2  9.8535504e+00 7.45e-01 6.15e+00  -0.5 9.26e-01    -  9.85e-01 5.73e-01h  1
   3  1.4064164e+01 3.81e-01 2.56e+01  -0.2 1.72e+00    -  7.23e-01 7.11e-01h  1
   4  1.4171342e+01 2.42e-01 7.29e+00  -0.0 1.37e+00    -  5.97e-01 6.41e-01f  1
   5  1.5192361e+01 1.09e-01 4.74e+00  -0.7 4.77e-01    -  9.94e-01 6.83e-01h  1
   6  1.5797319e+01 6.35e-02 1.60e+01  -1.0 2.40e-01    -  1.00e+00 4.34e-01h  1
   7  1.6944807e+01 9.70e-03 3.48e+00  -1.7 4.21e-01    -  1.00e+00 8.03e-01h  1
   8  1.7185836e+01 0.00e+00 1.82e+00  -1.3 2.63e-01    -  1.00e+00 1.00e+00f  1
   9  1.6980532e+01 4.01e-03 4.59e-01  -2.6 9.14e-02    -  1.00e+00 1.00e+00f  1
iter    objective    inf_pr   inf_du lg(mu)  ||d||  lg(rg) alpha_du alpha_pr  ls
  10  1.6977201e+01 2.17e-05 2.24e-01  -4.0 7.13e-03    -  1.00e+00 9.77e-01h  1
  11  1.6977306e+01 5.42e-05 3.35e-02  -5.9 2.42e-03    -  1.00e+00 9.97e-01h  1
  12  1.6969148e+01 1.84e-04 1.07e-01  -7.4 2.39e-03    -  1.00e+00 1.00e+00H  1
  13  1.6974686e+01 2.70e-05 1.76e-02  -9.3 2.45e-03    -  1.00e+00 1.00e+00h  1
  14  1.6974852e+01 3.16e-05 5.17e-02 -11.0 3.91e-04    -  1.00e+00 1.25e-01h  4

Number of Iterations....: 14

                                   (scaled)                 (unscaled)
Objective...............:   1.6974852453554295e+01    1.6974852453554295e+01
Dual infeasibility......:   5.1656831521041599e-02    5.1656831521041599e-02
Constraint violation....:   3.1639381708728773e-05    3.1639381708728773e-05
Complementarity.........:   5.3716514846635495e-10    5.3716514846635495e-10
Overall NLP error.......:   5.1656831521041599e-02    5.1656831521041599e-02


Number of objective function evaluations             = 20
Number of objective gradient evaluations             = 15
Number of equality constraint evaluations            = 0
Number of inequality constraint evaluations          = 20
Number of equality constraint Jacobian evaluations   = 0
Number of inequality constraint Jacobian evaluations = 15
Number of Lagrangian Hessian evaluations             = 0
Total CPU secs in IPOPT (w/o function evaluations)   =      0.016
Total CPU secs in NLP function evaluations           =    917.071

EXIT: Stopping optimization at current point as requested by user.
